c defined variables: 8 9 10 11 12 13 14 15 16 17 18 19 20 21 22 23 24 25 26 27 28 29 30 31 32 33 50 51 52 54 56 60 61 62 63 64 65 66 67 68 70 71 72 73 74 75 76 77 78 79 80 81 82 83 84 85 
p cnf 412 629
a 1 2 3 4 5 6 7 37 38 39 40 41 42 43 44 45 46 47 48 49 0
e 8 9 10 11 12 13 14 15 16 17 18 19 20 21 22 23 24 25 26 27 28 29 30 31 32 33 50 51 52 54 56 60 61 62 63 64 65 66 67 68 70 71 72 73 74 75 76 77 78 79 80 81 82 83 84 85 317 318 319 320 321 322 323 324 325 326 327 328 329 330 331 332 333 334 335 336 337 338 339 340 341 342 343 344 345 346 347 348 349 350 351 352 353 354 355 356 357 358 359 360 361 362 363 364 365 366 367 368 369 370 371 372 373 374 375 376 377 378 379 380 381 382 383 384 385 386 387 388 389 390 391 392 393 394 395 396 397 398 399 400 401 402 403 404 405 406 407 408 409 410 411 412 0
d 34 39 40 41 42 0
d 35 37 38 0
d 36 43 44 45 46 47 48 49 0
d 53 1 2 3 4 5 6 7 37 38 39 40 41 42 43 44 45 46 47 48 49 0
d 55 1 2 3 4 5 6 7 37 38 39 40 41 42 43 44 45 46 47 48 49 0
d 57 1 2 3 4 5 6 7 37 38 39 40 41 42 43 44 45 46 47 48 49 0
d 58 1 2 3 4 5 6 7 37 38 39 40 41 42 43 44 45 46 47 48 49 0
d 59 1 2 3 4 5 6 7 37 38 39 40 41 42 43 44 45 46 47 48 49 0
d 69 1 2 3 4 5 6 7 37 38 39 40 41 42 43 44 45 46 47 48 49 0
d 86 1 2 3 4 5 6 7 37 38 39 40 41 42 43 44 45 46 47 48 49 0
317 -8 0
-317 8 0
318 -9 0
-318 9 0
-319 -10 0
319 10 0
320 -11 0
-320 11 0
321 -12 0
-321 12 0
-322 -13 0
322 13 0
323 -14 0
-323 14 0
324 -15 0
-324 15 0
-325 -16 0
325 16 0
326 -17 0
-326 17 0
327 -18 0
-327 18 0
-328 -19 0
328 19 0
329 -20 0
-329 20 0
330 -21 0
-330 21 0
-331 -22 0
331 22 0
-332 -23 0
332 23 0
333 -24 0
-333 24 0
335 -25 0
-335 25 0
337 -26 0
-337 26 0
-339 -27 0
339 27 0
340 -28 0
-340 28 0
341 -29 0
-341 29 0
343 -30 0
-343 30 0
344 -31 0
-344 31 0
345 -32 0
-345 32 0
-349 -33 0
349 33 0
326 -50 0
-326 50 0
327 -51 0
-327 51 0
-350 -52 0
350 52 0
-53 -54 0
53 54 0
-351 -56 0
351 56 0
344 -60 0
-344 60 0
353 -61 0
-353 61 0
-357 -62 0
357 62 0
317 -63 0
-317 63 0
318 -64 0
-318 64 0
-358 -65 0
358 65 0
359 -66 0
-359 66 0
360 -67 0
-360 67 0
-361 -68 0
361 68 0
364 -70 0
-364 70 0
367 -71 0
-367 71 0
370 -72 0
-370 72 0
373 -73 0
-373 73 0
376 -74 0
-376 74 0
379 -75 0
-379 75 0
382 -76 0
-382 76 0
385 -77 0
-385 77 0
388 -78 0
-388 78 0
391 -79 0
-391 79 0
394 -80 0
-394 80 0
397 -81 0
-397 81 0
400 -82 0
-400 82 0
403 -83 0
-403 83 0
406 -84 0
-406 84 0
412 -85 0
-412 85 0
-8 1 0
-8 4 0
-1 -4 8 0
-9 -1 0
-9 -4 0
1 4 9 0
-8 10 0
-9 10 0
-10 8 9 0
-11 7 0
-11 10 0
-7 -10 11 0
-12 -7 0
-12 -10 0
7 10 12 0
-11 13 0
-12 13 0
-13 11 12 0
-14 4 0
-14 7 0
-4 -7 14 0
-15 1 0
-15 -13 0
-1 13 15 0
-14 16 0
-15 16 0
-16 14 15 0
-17 3 0
-17 6 0
-3 -6 17 0
-18 -3 0
-18 -6 0
3 6 18 0
-17 19 0
-18 19 0
-19 17 18 0
-20 16 0
-20 19 0
-16 -19 20 0
-21 -16 0
-21 -19 0
16 19 21 0
-20 22 0
-21 22 0
-22 20 21 0
-2 23 0
-5 23 0
-23 2 5 0
-24 2 0
-24 5 0
-2 -5 24 0
-25 3 0
-25 -22 0
-25 23 0
-3 22 -23 25 0
-26 6 0
-26 16 0
-26 23 0
-6 -16 -23 26 0
-24 27 0
-25 27 0
-26 27 0
-27 24 25 26 0
-28 -27 0
-28 23 0
27 -23 28 0
-29 3 0
-29 6 0
-29 -27 0
-3 -6 27 29 0
-30 -27 0
-30 -22 0
-30 16 0
27 22 -16 30 0
-31 2 0
-31 3 0
-31 5 0
-31 6 0
-2 -3 -5 -6 31 0
-32 2 0
-32 5 0
-32 -22 0
-32 16 0
-2 -5 22 -16 32 0
-28 33 0
-29 33 0
-30 33 0
-31 33 0
-32 33 0
-33 28 29 30 31 32 0
-50 3 0
-50 6 0
-3 -6 50 0
-51 -3 0
-51 -6 0
3 6 51 0
-50 52 0
-51 52 0
-52 50 51 0
-53 34 0
-53 52 0
-34 -52 53 0
-53 -54 0
53 54 0
-55 -34 0
-55 -52 0
34 52 55 0
-54 56 0
-55 56 0
-56 54 55 0
-57 -36 0
-57 35 0
36 -35 57 0
-58 3 0
-58 6 0
-58 -36 0
-3 -6 36 58 0
-59 -36 0
-59 -56 0
-59 34 0
36 56 -34 59 0
-60 2 0
-60 3 0
-60 5 0
-60 6 0
-2 -3 -5 -6 60 0
-61 2 0
-61 5 0
-61 -56 0
-61 34 0
-2 -5 56 -34 61 0
-57 62 0
-58 62 0
-59 62 0
-60 62 0
-61 62 0
-62 57 58 59 60 61 0
-63 1 0
-63 4 0
-1 -4 63 0
-64 -1 0
-64 -4 0
1 4 64 0
-63 65 0
-64 65 0
-65 63 64 0
-66 7 0
-66 65 0
-7 -65 66 0
-67 -7 0
-67 -65 0
7 65 67 0
-66 68 0
-67 68 0
-68 66 67 0
-69 -27 36 0
-69 27 -36 0
69 -27 -36 0
69 27 36 0
-70 -33 62 0
-70 33 -62 0
70 -33 -62 0
70 33 62 0
-71 -22 56 0
-71 22 -56 0
71 -22 -56 0
71 22 56 0
-72 -13 68 0
-72 13 -68 0
72 -13 -68 0
72 13 68 0
-69 -70 -71 -72 73 0
-73 69 0
-73 70 0
-73 71 0
-73 72 0
-2 -37 -74 0
-2 37 74 0
2 -37 74 0
2 37 -74 0
-5 -38 -75 0
-5 38 75 0
5 -38 75 0
5 38 -75 0
-1 -39 -76 0
-1 39 76 0
1 -39 76 0
1 39 -76 0
-4 -40 -77 0
-4 40 77 0
4 -40 77 0
4 40 -77 0
-7 -41 -78 0
-7 41 78 0
7 -41 78 0
7 41 -78 0
-68 -42 -79 0
-68 42 79 0
68 -42 79 0
68 42 -79 0
-2 -43 -80 0
-2 43 80 0
2 -43 80 0
2 43 -80 0
-3 -44 -81 0
-3 44 81 0
3 -44 81 0
3 44 -81 0
-5 -45 -82 0
-5 45 82 0
5 -45 82 0
5 45 -82 0
-6 -46 -83 0
-6 46 83 0
6 -46 83 0
6 46 -83 0
-56 -47 -84 0
-56 47 84 0
56 -47 84 0
56 47 -84 0
-34 -48 -85 0
-34 48 85 0
34 -48 85 0
34 48 -85 0
-35 -49 -86 0
-35 49 86 0
35 -49 86 0
35 49 -86 0
74 75 76 77 78 79 80 81 82 83 84 85 86 73 0
1 -317 0
4 -317 0
-1 -4 317 0
-1 -318 0
-4 -318 0
1 4 318 0
-8 -319 0
-9 -319 0
8 9 319 0
7 -320 0
10 -320 0
-7 -10 320 0
-7 -321 0
-10 -321 0
7 10 321 0
-11 -322 0
-12 -322 0
11 12 322 0
4 -323 0
7 -323 0
-4 -7 323 0
1 -324 0
-13 -324 0
-1 13 324 0
-14 -325 0
-15 -325 0
14 15 325 0
3 -326 0
6 -326 0
-3 -6 326 0
-3 -327 0
-6 -327 0
3 6 327 0
-17 -328 0
-18 -328 0
17 18 328 0
16 -329 0
19 -329 0
-16 -19 329 0
-16 -330 0
-19 -330 0
16 19 330 0
-20 -331 0
-21 -331 0
20 21 331 0
-2 -332 0
-5 -332 0
2 5 332 0
2 -333 0
5 -333 0
-2 -5 333 0
3 -334 0
-22 -334 0
-3 22 334 0
23 -335 0
334 -335 0
-23 -334 335 0
6 -336 0
16 -336 0
-6 -16 336 0
23 -337 0
336 -337 0
-23 -336 337 0
-24 -338 0
-25 -338 0
24 25 338 0
-26 -339 0
338 -339 0
26 -338 339 0
23 -340 0
-27 -340 0
-23 27 340 0
-27 -341 0
326 -341 0
27 -326 341 0
16 -342 0
-22 -342 0
-16 22 342 0
-27 -343 0
342 -343 0
27 -342 343 0
326 -344 0
333 -344 0
-326 -333 344 0
333 -345 0
342 -345 0
-333 -342 345 0
-28 -346 0
-29 -346 0
28 29 346 0
-30 -347 0
-31 -347 0
30 31 347 0
-32 -348 0
347 -348 0
32 -347 348 0
346 -349 0
348 -349 0
-346 -348 349 0
-50 -350 0
-51 -350 0
50 51 350 0
-54 -351 0
-55 -351 0
54 55 351 0
53 -352 0
-56 -352 0
-53 56 352 0
333 -353 0
352 -353 0
-333 -352 353 0
-57 -354 0
-58 -354 0
57 58 354 0
-59 -355 0
-60 -355 0
59 60 355 0
-61 -356 0
355 -356 0
61 -355 356 0
354 -357 0
356 -357 0
-354 -356 357 0
-63 -358 0
-64 -358 0
63 64 358 0
7 -359 0
65 -359 0
-7 -65 359 0
-7 -360 0
-65 -360 0
7 65 360 0
-66 -361 0
-67 -361 0
66 67 361 0
33 -362 0
-62 -362 0
-33 62 362 0
-33 -363 0
62 -363 0
33 -62 363 0
-362 -364 0
-363 -364 0
362 363 364 0
22 -365 0
-56 -365 0
-22 56 365 0
-22 -366 0
56 -366 0
22 -56 366 0
-365 -367 0
-366 -367 0
365 366 367 0
13 -368 0
-68 -368 0
-13 68 368 0
-13 -369 0
68 -369 0
13 -68 369 0
-368 -370 0
-369 -370 0
368 369 370 0
69 -371 0
70 -371 0
-69 -70 371 0
71 -372 0
72 -372 0
-71 -72 372 0
371 -373 0
372 -373 0
-371 -372 373 0
-2 -374 0
-37 -374 0
2 37 374 0
2 -375 0
37 -375 0
-2 -37 375 0
-374 -376 0
-375 -376 0
374 375 376 0
-5 -377 0
-38 -377 0
5 38 377 0
5 -378 0
38 -378 0
-5 -38 378 0
-377 -379 0
-378 -379 0
377 378 379 0
-1 -380 0
-39 -380 0
1 39 380 0
1 -381 0
39 -381 0
-1 -39 381 0
-380 -382 0
-381 -382 0
380 381 382 0
-4 -383 0
-40 -383 0
4 40 383 0
4 -384 0
40 -384 0
-4 -40 384 0
-383 -385 0
-384 -385 0
383 384 385 0
-7 -386 0
-41 -386 0
7 41 386 0
7 -387 0
41 -387 0
-7 -41 387 0
-386 -388 0
-387 -388 0
386 387 388 0
-42 -389 0
-68 -389 0
42 68 389 0
42 -390 0
68 -390 0
-42 -68 390 0
-389 -391 0
-390 -391 0
389 390 391 0
-2 -392 0
-43 -392 0
2 43 392 0
2 -393 0
43 -393 0
-2 -43 393 0
-392 -394 0
-393 -394 0
392 393 394 0
-3 -395 0
-44 -395 0
3 44 395 0
3 -396 0
44 -396 0
-3 -44 396 0
-395 -397 0
-396 -397 0
395 396 397 0
-5 -398 0
-45 -398 0
5 45 398 0
5 -399 0
45 -399 0
-5 -45 399 0
-398 -400 0
-399 -400 0
398 399 400 0
-6 -401 0
-46 -401 0
6 46 401 0
6 -402 0
46 -402 0
-6 -46 402 0
-401 -403 0
-402 -403 0
401 402 403 0
-47 -404 0
-56 -404 0
47 56 404 0
47 -405 0
56 -405 0
-47 -56 405 0
-404 -406 0
-405 -406 0
404 405 406 0
-52 -407 0
-55 -407 0
52 55 407 0
-53 -408 0
-407 -408 0
53 407 408 0
-48 -409 0
408 -409 0
48 -408 409 0
-48 -410 0
-55 -410 0
48 55 410 0
-408 -411 0
-410 -411 0
408 410 411 0
-409 -412 0
-411 -412 0
409 411 412 0
